* ENCODING=ISO-8859-1
NAME          CPLEX
ROWS
 N  obj1    
 G  c1      
 G  c2      
 G  c3      
 G  c4      
 G  c5      
 G  c6      
 G  c7      
 G  c8      
 G  c9      
 G  c10     
 G  c11     
 G  c12     
 G  c13     
 G  c14     
 G  c15     
 G  c16     
 G  c17     
 G  c18     
 G  c19     
 G  c20     
 G  c21     
 G  c22     
 G  c23     
 G  c24     
 G  c25     
 G  c26     
 G  c27     
 G  c28     
 G  c29     
 G  c30     
 G  c31     
 G  c32     
 G  c33     
 G  c34     
 G  c35     
 G  c36     
 G  c37     
 G  c38     
 G  c39     
 G  c40     
COLUMNS
    MARK0000  'MARKER'                 'INTORG'
    x1        obj1                            1
    x1        c11                           608
    x1        c12                           697
    x2        obj1                            1
    x2        c8                            862
    x2        c12                           873
    x2        c26                           477
    x2        c28                           971
    x3        obj1                            1
    x3        c4                            265
    x3        c6                            831
    x3        c25                           838
    x3        c30                           554
    x3        c33                           763
    x3        c40                           545
    x4        obj1                            1
    x4        c27                           580
    x4        c29                           439
    x4        c30                           554
    x4        c32                           588
    x5        obj1                            1
    x5        c12                           956
    x5        c22                           454
    x5        c35                           138
    x6        obj1                            1
    x6        c2                            447
    x6        c6                            374
    x6        c11                           860
    x6        c20                           540
    x6        c24                           250
    x6        c27                           646
    x6        c29                           221
    x7        obj1                            1
    x7        c20                           618
    x7        c24                           955
    x8        obj1                            1
    x8        c35                           860
    x9        obj1                            1
    x9        c3                            355
    x9        c13                           564
    x9        c30                           990
    x9        c33                           472
    x9        c38                           582
    x10       obj1                            1
    x10       c5                            841
    x10       c6                            105
    x11       obj1                            1
    x11       c15                           786
    x11       c26                           437
    x11       c31                           939
    x11       c34                           699
    x12       obj1                            1
    x12       c2                            600
    x12       c8                            205
    x12       c26                           878
    x13       obj1                            1
    x13       c25                           617
    x14       obj1                            1
    x14       c13                           265
    x14       c20                           385
    x14       c23                           766
    x14       c25                           370
    x15       obj1                            1
    x15       c12                           328
    x15       c17                           864
    x15       c19                           638
    x15       c26                           672
    x15       c32                           807
    x15       c39                           404
    x16       obj1                            1
    x16       c14                           446
    x16       c21                           517
    x16       c29                           786
    x16       c33                           486
    x17       obj1                            1
    x17       c4                            159
    x17       c9                            439
    x17       c24                           437
    x18       obj1                            1
    x18       c6                            195
    x18       c7                            501
    x18       c11                           964
    x18       c25                           438
    x18       c39                           769
    x19       obj1                            1
    x19       c3                            519
    x19       c23                           188
    x20       obj1                            1
    x20       c17                           690
    x20       c19                           323
    x20       c23                           230
    x20       c25                           289
    x20       c26                           885
    x20       c40                           702
    x21       obj1                            1
    x21       c10                           166
    x21       c16                           358
    x21       c20                           698
    x21       c24                           988
    x22       obj1                            1
    x22       c3                            883
    x22       c9                            773
    x22       c16                           239
    x22       c28                           348
    x22       c30                           342
    x23       obj1                            1
    x23       c10                           447
    x23       c28                           487
    x23       c33                           854
    x24       obj1                            1
    x24       c9                            480
    x24       c10                           661
    x24       c20                           274
    x24       c27                           528
    x24       c39                           712
    x25       obj1                            1
    x25       c1                            308
    x25       c2                            686
    x25       c9                            735
    x25       c19                           796
    x25       c29                           464
    x25       c36                           196
    x26       obj1                            1
    x26       c5                            869
    x26       c28                           481
    x26       c31                           181
    x26       c34                           780
    x26       c36                           668
    x26       c37                           782
    x26       c40                           223
    x27       obj1                            1
    x27       c35                           653
    x28       obj1                            1
    x28       c10                           800
    x28       c13                           437
    x28       c15                           138
    x28       c17                           989
    x28       c18                           390
    x28       c23                           632
    x29       obj1                            1
    x29       c4                            715
    x29       c15                           486
    x30       obj1                            1
    x30       c8                            686
    x30       c16                           526
    x30       c37                           497
    x31       obj1                            1
    x31       c29                           990
    x31       c31                           574
    x32       obj1                            1
    x32       c6                            513
    x32       c37                           278
    x32       c40                           703
    x33       obj1                            1
    x33       c19                           195
    x33       c34                           749
    x34       obj1                            1
    x34       c1                            678
    x34       c30                           443
    x35       obj1                            1
    x35       c5                            417
    x35       c11                           156
    x35       c13                           811
    x35       c34                           250
    x36       obj1                            1
    x36       c6                            922
    x36       c8                            242
    x36       c12                           157
    x36       c24                           724
    x37       obj1                            1
    x37       c1                            829
    x37       c6                            475
    x37       c9                            192
    x37       c14                           988
    x38       obj1                            1
    x38       c18                           654
    x38       c37                           277
    x39       obj1                            1
    x39       c3                            565
    x39       c18                           221
    x39       c40                           620
    x40       obj1                            1
    x40       c7                            638
    x40       c23                           777
    x40       c25                           332
    x40       c29                           152
    x40       c40                           689
    x41       obj1                            1
    x41       c7                            286
    x41       c9                            445
    x41       c17                           331
    x41       c24                           354
    x41       c36                           566
    x42       obj1                            1
    x42       c12                           259
    x42       c13                           453
    x42       c23                           378
    x42       c27                           815
    x42       c30                           667
    x42       c36                           423
    x43       obj1                            1
    x43       c7                            551
    x43       c20                           254
    x43       c33                           815
    x44       obj1                            1
    x44       c6                            627
    x44       c26                           462
    x44       c38                           798
    x45       obj1                            1
    x45       c8                            387
    x45       c40                           775
    x46       obj1                            1
    x46       c22                           828
    x46       c26                           177
    x46       c33                           407
    x46       c39                           681
    x47       obj1                            1
    x47       c6                            330
    x47       c9                            788
    x47       c11                           393
    x47       c12                           356
    x47       c38                           226
    x47       c39                           628
    x48       obj1                            1
    x48       c4                            299
    x48       c6                            383
    x48       c15                           752
    x48       c17                           513
    x48       c39                           852
    x49       obj1                            1
    x49       c4                            254
    x49       c31                           246
    x49       c32                           123
    x49       c39                           829
    x50       obj1                            1
    x50       c3                            526
    x50       c11                           155
    x50       c22                           764
    x50       c32                           637
    x51       obj1                            1
    x51       c28                           396
    x51       c29                           207
    x52       obj1                            1
    x52       c13                           838
    x52       c29                           896
    x52       c31                           908
    x53       obj1                            1
    x53       c2                            894
    x53       c27                           523
    x53       c29                           941
    x53       c30                           249
    x54       obj1                            1
    x54       c3                            599
    x54       c4                            241
    x54       c21                           981
    x54       c23                           854
    x54       c25                           279
    x54       c28                           518
    x54       c33                           383
    x55       obj1                            1
    x55       c25                           149
    x55       c36                           568
    x55       c38                           611
    x56       obj1                            1
    x56       c11                           339
    x56       c20                           226
    x56       c22                           818
    x56       c27                           880
    x56       c40                           935
    x57       obj1                            1
    x57       c13                           795
    x58       obj1                            1
    x58       c11                           931
    x58       c24                           682
    x58       c29                           779
    x58       c38                           410
    x59       obj1                            1
    x59       c5                            885
    x59       c13                           886
    x59       c16                           619
    x60       obj1                            1
    x60       c8                            642
    x60       c14                           410
    x60       c18                           162
    x60       c21                           891
    x60       c27                           404
    x60       c29                           806
    x60       c31                           474
    x60       c35                           978
    x61       obj1                            1
    x61       c1                            933
    x61       c5                            951
    x61       c10                           603
    x61       c12                           476
    x61       c24                           915
    x61       c26                           883
    x62       obj1                            1
    x62       c20                           111
    x62       c31                           729
    x63       obj1                            1
    x63       c2                            941
    x63       c19                           588
    x63       c20                           306
    x63       c21                           252
    x63       c25                           129
    x64       obj1                            1
    x64       c13                           978
    x64       c16                           338
    x64       c18                           134
    x64       c23                           604
    x64       c33                           642
    x64       c37                           926
    x65       obj1                            1
    x65       c20                           531
    x65       c39                           149
    x66       obj1                            1
    x66       c1                            241
    x66       c9                            957
    x66       c38                           252
    x67       obj1                            1
    x67       c2                            958
    x67       c7                            700
    x67       c40                           904
    x68       obj1                            1
    x68       c3                            117
    x68       c10                           574
    x68       c37                           920
    x68       c39                           842
    x69       obj1                            1
    x69       c14                           368
    x69       c20                           334
    x69       c26                           180
    x69       c27                           275
    x69       c37                           399
    x70       obj1                            1
    x70       c4                            670
    x70       c6                            493
    x70       c7                            418
    x70       c11                           868
    x70       c19                           516
    x70       c24                           521
    x71       obj1                            1
    x71       c13                           133
    x71       c26                           664
    x72       obj1                            1
    x72       c7                            746
    x72       c9                            630
    x72       c34                           850
    x72       c38                           579
    x73       obj1                            1
    x74       obj1                            1
    x74       c28                           418
    x74       c38                           272
    x75       obj1                            1
    x75       c1                            884
    x75       c16                           279
    x75       c33                           483
    x76       obj1                            1
    x76       c6                            334
    x76       c13                           487
    x76       c29                           152
    x76       c31                           794
    x77       obj1                            1
    x77       c4                            365
    x77       c5                            258
    x77       c30                           864
    x77       c32                           353
    x78       obj1                            1
    x78       c19                           970
    x78       c22                           701
    x79       obj1                            1
    x79       c5                            531
    x79       c7                            393
    x79       c9                            660
    x79       c23                           988
    x79       c38                           843
    x80       obj1                            1
    x80       c17                           713
    x80       c26                           185
    x80       c28                           691
    MARK0001  'MARKER'                 'INTEND'
RHS
    rhs       c1                           1937
    rhs       c2                           2263
    rhs       c3                           1782
    rhs       c4                           1484
    rhs       c5                           2376
    rhs       c6                           2791
    rhs       c7                           2117
    rhs       c8                           1512
    rhs       c9                           3050
    rhs       c10                          1626
    rhs       c11                          2637
    rhs       c12                          2051
    rhs       c13                          3324
    rhs       c14                          1106
    rhs       c15                          1081
    rhs       c16                          1180
    rhs       c17                          2050
    rhs       c18                           781
    rhs       c19                          2013
    rhs       c20                          2139
    rhs       c21                          1321
    rhs       c22                          1783
    rhs       c23                          2709
    rhs       c24                          2913
    rhs       c25                          1721
    rhs       c26                          2950
    rhs       c27                          2326
    rhs       c28                          2155
    rhs       c29                          3417
    rhs       c30                          2332
    rhs       c31                          2423
    rhs       c32                          1254
    rhs       c33                          2653
    rhs       c34                          1664
    rhs       c35                          1315
    rhs       c36                          1211
    rhs       c37                          2040
    rhs       c38                          2287
    rhs       c39                          2933
    rhs       c40                          3048
BOUNDS
 LI bnd       x1        0
 LI bnd       x2        0
 LI bnd       x3        0
 LI bnd       x4        0
 LI bnd       x5        0
 LI bnd       x6        0
 LI bnd       x7        0
 LI bnd       x8        0
 LI bnd       x9        0
 LI bnd       x10       0
 LI bnd       x11       0
 LI bnd       x12       0
 LI bnd       x13       0
 LI bnd       x14       0
 LI bnd       x15       0
 LI bnd       x16       0
 LI bnd       x17       0
 LI bnd       x18       0
 LI bnd       x19       0
 LI bnd       x20       0
 LI bnd       x21       0
 LI bnd       x22       0
 LI bnd       x23       0
 LI bnd       x24       0
 LI bnd       x25       0
 LI bnd       x26       0
 LI bnd       x27       0
 LI bnd       x28       0
 LI bnd       x29       0
 LI bnd       x30       0
 LI bnd       x31       0
 LI bnd       x32       0
 LI bnd       x33       0
 LI bnd       x34       0
 LI bnd       x35       0
 LI bnd       x36       0
 LI bnd       x37       0
 LI bnd       x38       0
 LI bnd       x39       0
 LI bnd       x40       0
 LI bnd       x41       0
 LI bnd       x42       0
 LI bnd       x43       0
 LI bnd       x44       0
 LI bnd       x45       0
 LI bnd       x46       0
 LI bnd       x47       0
 LI bnd       x48       0
 LI bnd       x49       0
 LI bnd       x50       0
 LI bnd       x51       0
 LI bnd       x52       0
 LI bnd       x53       0
 LI bnd       x54       0
 LI bnd       x55       0
 LI bnd       x56       0
 LI bnd       x57       0
 LI bnd       x58       0
 LI bnd       x59       0
 LI bnd       x60       0
 LI bnd       x61       0
 LI bnd       x62       0
 LI bnd       x63       0
 LI bnd       x64       0
 LI bnd       x65       0
 LI bnd       x66       0
 LI bnd       x67       0
 LI bnd       x68       0
 LI bnd       x69       0
 LI bnd       x70       0
 LI bnd       x71       0
 LI bnd       x72       0
 LI bnd       x73       0
 LI bnd       x74       0
 LI bnd       x75       0
 LI bnd       x76       0
 LI bnd       x77       0
 LI bnd       x78       0
 LI bnd       x79       0
 LI bnd       x80       0
ENDATA
